n_res = 6;
rcap = [9, 8, 9, 9, 45, 55];
rtype = [1, 1, 1, 1, 2, 2];
n_tasks = 16;
modes = [ {1, 2, 3}, {4, 5, 6}, {7, 8, 9}, {10, 11, 12}, {13, 14, 15}, {16, 17, 18}, {19, 20, 21}, {22, 23, 24}, {25, 26, 27}, {28, 29, 30}, {31, 32, 33}, {34, 35, 36}, {37, 38, 39}, {40, 41, 42}, {43, 44, 45}, {46, 47, 48} ];
succ = [ {6, 10, 11}, {4, 7, 8}, {15}, {5}, {9, 10}, {12, 14, 16}, {11, 13, 15}, {9, 10, 11}, {12, 13, 14}, {12, 16}, {14}, {15}, {16}, {}, {}, {} ];
n_opt = 48;
dur = [1, 2, 9, 3, 6, 6, 9, 10, 10, 1, 4, 6, 1, 9, 9, 1, 2, 3, 2, 3, 7, 1, 9, 10, 6, 9, 9, 1, 3, 7, 5, 6, 6, 5, 6, 7, 5, 7, 9, 5, 6, 7, 3, 8, 10, 6, 7, 9];
rreq = [|  0,  8,  4,  5,  5,  0,  9,  8,  0,  6,  5,  3,  0,  5,  6,  0,  0,  0,  5,  0,  0,  6,  0,  6,  0,  0,  3,  0,  0,  3,  6,  3,  0,  0,  9,  0,  0,  7,  5,  0,  5,  2,  0,  0,  0,  0,  4,  0
        |  0,  4,  0,  5,  0,  0,  3,  0,  0,  0,  6,  0, 10,  0,  0,  2,  0,  0,  0,  0,  0,  4,  2,  0,  0,  5,  0,  0,  0,  5,  2,  0,  0,  0,  0,  5,  5,  5,  4,  9,  0,  9,  0,  6,  0,  7,  5,  3
        |  7,  0,  0,  6,  3,  3,  0,  0,  8, 10,  3,  0,  3,  0,  3,  0,  4,  3,  0,  0,  0,  0,  0,  9,  3,  3,  1,  9,  7,  3,  0,  0,  0,  0,  7,  7,  0,  6,  6,  4,  4,  0, 10,  9,  0, 10,  0,  0
        |  0,  9,  6,  0,  0,  2,  0,  0,  0,  8,  0,  7,  6,  6,  5,  0,  0,  1,  4,  4,  2,  0,  0,  7,  0,  4,  4,  0,  0,  9,  0,  6,  5,  9,  8,  0,  0,  0,  0,  8,  0,  0,  5,  0,  4,  2,  0,  0
        |  8,  8,  0,  3,  0,  0, 10, 10, 10,  0,  2,  0,  0,  7,  0,  6,  5,  4,  9,  0,  7,  0,  0,  0,  0,  3,  0,  0,  2,  2,  4,  1,  2,  0,  0,  4,  4,  3,  0,  8,  0,  0,  0,  4,  0,  0,  0,  0
        |  0,  0,  4,  0,  1,  3,  0,  0,  0,  9,  0,  7, 10,  0,  9,  0,  0,  0,  0,  7,  0, 10,  7,  7,  8,  0,  7,  9,  0,  0,  0,  0,  0,  7,  6,  0,  0,  0,  7,  0,  9,  7,  7,  0,  1,  6,  6,  6 |];
